10
8
 28  11
 60  37
  3  42
  7  54
 84  51
  7   3
 58  48
 25   1
 92  99
 98  57
 51  33
 54  31
 64  59
 92  33
  6  60
 65  30
 39  28
 34  74
 47  10
 88  12
 50  83
 96  42
  4  31
 14  66
  9  12
 56  68
 68   9
 39  66
 91  41
 27  52
 10  37
 30  30
 26  35
 43  20
 33  83
